14° run output:
{
    "Function": "ClusterA300.tsp",
    "Problem dimension": [
        24,
        183,
        222,
        293,
        46,
        164,
        59,
        176,
        205,
        187,
        91,
        28,
        252,
        113,
        48,
        57,
        215,
        157,
        86,
        201,
        160,
        152,
        72,
        74,
        65,
        295,
        8,
        203,
        88,
        75,
        79,
        274,
        41,
        296,
        10,
        116,
        173,
        207,
        213,
        271,
        210,
        299,
        140,
        20,
        223,
        68,
        64,
        286,
        190,
        228,
        288,
        275,
        115,
        284,
        145,
        132,
        235,
        285,
        172,
        104,
        136,
        206,
        73,
        105,
        30,
        251,
        47,
        227,
        50,
        241,
        87,
        260,
        200,
        208,
        234,
        268,
        166,
        144,
        13,
        78,
        44,
        256,
        254,
        96,
        102,
        216,
        127,
        107,
        180,
        150,
        246,
        291,
        161,
        0,
        248,
        269,
        106,
        197,
        199,
        97,
        69,
        121,
        26,
        277,
        267,
        174,
        32,
        244,
        280,
        247,
        249,
        19,
        292,
        138,
        22,
        242,
        18,
        225,
        185,
        31,
        112,
        202,
        167,
        99,
        243,
        194,
        214,
        141,
        255,
        224,
        133,
        120,
        21,
        52,
        45,
        85,
        58,
        81,
        16,
        129,
        162,
        221,
        153,
        169,
        117,
        61,
        137,
        143,
        63,
        192,
        238,
        111,
        209,
        212,
        118,
        36,
        93,
        43,
        33,
        159,
        282,
        42,
        279,
        195,
        123,
        272,
        240,
        54,
        38,
        34,
        259,
        163,
        289,
        67,
        56,
        124,
        294,
        71,
        204,
        62,
        265,
        82,
        134,
        60,
        119,
        2,
        262,
        266,
        283,
        27,
        184,
        76,
        149,
        253,
        193,
        237,
        92,
        29,
        298,
        94,
        39,
        14,
        126,
        191,
        146,
        84,
        276,
        151,
        177,
        11,
        220,
        17,
        264,
        297,
        100,
        4,
        80,
        263,
        232,
        226,
        171,
        219,
        250,
        261,
        130,
        89,
        217,
        182,
        179,
        139,
        135,
        178,
        154,
        245,
        95,
        270,
        170,
        175,
        287,
        5,
        55,
        83,
        128,
        77,
        108,
        168,
        181,
        230,
        236,
        53,
        122,
        229,
        23,
        103,
        290,
        131,
        6,
        1,
        189,
        278,
        7,
        239,
        101,
        3,
        258,
        114,
        98,
        15,
        9,
        12,
        186,
        198,
        49,
        281,
        273,
        158,
        218,
        66,
        37,
        155,
        188,
        51,
        148,
        110,
        257,
        142,
        233,
        35,
        90,
        109,
        211,
        40,
        156,
        231,
        125,
        25,
        196,
        70,
        165,
        147
    ],
    "Global Optimum": 0,
    "Algorithm": "Genetic algorithm",
    "Parameters": {
        "population": 30,
        "offspring": 30,
        "mutation probability": 0.0033333333333333335,
        "crossover probability": 0.9
    },
    "Fitness": 252933,
    "Solution": [
        24,
        183,
        222,
        293,
        46,
        164,
        59,
        176,
        205,
        187,
        91,
        28,
        252,
        113,
        48,
        57,
        215,
        157,
        86,
        201,
        160,
        152,
        72,
        74,
        65,
        295,
        8,
        203,
        88,
        75,
        79,
        274,
        41,
        296,
        10,
        116,
        173,
        207,
        213,
        271,
        210,
        299,
        140,
        20,
        223,
        68,
        64,
        286,
        190,
        228,
        288,
        275,
        115,
        284,
        145,
        132,
        235,
        285,
        172,
        104,
        136,
        206,
        73,
        105,
        30,
        251,
        47,
        227,
        50,
        241,
        87,
        260,
        200,
        208,
        234,
        268,
        166,
        144,
        13,
        78,
        44,
        256,
        254,
        96,
        102,
        216,
        127,
        107,
        180,
        150,
        246,
        291,
        161,
        0,
        248,
        269,
        106,
        197,
        199,
        97,
        69,
        121,
        26,
        277,
        267,
        174,
        32,
        244,
        280,
        247,
        249,
        19,
        292,
        138,
        22,
        242,
        18,
        225,
        185,
        31,
        112,
        202,
        167,
        99,
        243,
        194,
        214,
        141,
        255,
        224,
        133,
        120,
        21,
        52,
        45,
        85,
        58,
        81,
        16,
        129,
        162,
        221,
        153,
        169,
        117,
        61,
        137,
        143,
        63,
        192,
        238,
        111,
        209,
        212,
        118,
        36,
        93,
        43,
        33,
        159,
        282,
        42,
        279,
        195,
        123,
        272,
        240,
        54,
        38,
        34,
        259,
        163,
        289,
        67,
        56,
        124,
        294,
        71,
        204,
        62,
        265,
        82,
        134,
        60,
        119,
        2,
        262,
        266,
        283,
        27,
        184,
        76,
        149,
        253,
        193,
        237,
        92,
        29,
        298,
        94,
        39,
        14,
        126,
        191,
        146,
        84,
        276,
        151,
        177,
        11,
        220,
        17,
        264,
        297,
        100,
        4,
        80,
        263,
        232,
        226,
        171,
        219,
        250,
        261,
        130,
        89,
        217,
        182,
        179,
        139,
        135,
        178,
        154,
        245,
        95,
        270,
        170,
        175,
        287,
        5,
        55,
        83,
        128,
        77,
        108,
        168,
        181,
        230,
        236,
        53,
        122,
        229,
        23,
        103,
        290,
        131,
        6,
        1,
        189,
        278,
        7,
        239,
        101,
        3,
        258,
        114,
        98,
        15,
        9,
        12,
        186,
        198,
        49,
        281,
        273,
        158,
        218,
        66,
        37,
        155,
        188,
        51,
        148,
        110,
        257,
        142,
        233,
        35,
        90,
        109,
        211,
        40,
        156,
        231,
        125,
        25,
        196,
        70,
        165,
        147
    ],
    "Nb of functions evaluations": 400020,
    "Computational time in seconds": 744.8178663253784,
    "Stopping criterion in evaluations": 400000
}